c A SAT instance generated from a 3-CNF formula that had 70 clauses and 10 variables
p cnf 10 70
6 7 10 0
8 7 -5 0
-5 2 10 0
2 -10 -4 0
7 -8 3 0
3 -8 -7 0
-10 -8 -5 0
-2 10 -1 0
9 3 -2 0
1 3 10 0
-10 -7 4 0
-8 -5 4 0
4 -3 6 0
-5 7 -8 0
2 6 -3 0
-7 -9 -5 0
-3 -9 6 0
-6 10 3 0
-10 5 -9 0
10 5 -8 0
7 -6 10 0
-4 10 -8 0
-4 5 -8 0
1 6 10 0
8 7 9 0
9 6 -10 0
2 6 -1 0
7 -4 1 0
4 6 -5 0
-2 -10 -6 0
-3 -10 -8 0
-2 5 9 0
4 -3 9 0
-6 -8 7 0
6 7 -8 0
4 9 6 0
-10 -4 -5 0
-8 -9 -3 0
3 -8 5 0
9 -4 -2 0
-6 7 2 0
-2 -7 -10 0
-7 -5 4 0
-6 -5 -10 0
-1 -7 -4 0
-7 -6 -4 0
-4 3 10 0
-3 2 5 0
-7 -5 10 0
10 2 -9 0
3 -7 8 0
4 -2 -3 0
-5 4 1 0
-7 5 -9 0
9 4 -1 0
4 -6 -9 0
6 2 8 0
-7 8 3 0
-7 3 2 0
-5 2 -9 0
3 2 -5 0
6 8 7 0
7 8 -1 0
-7 4 9 0
-3 -7 10 0
4 -8 3 0
-6 -9 7 0
-5 -6 2 0
9 2 4 0
-1 -7 3 0
%
0

98 67 46 66 79 35 83 53 83 19
